NAME: SN_1004.hcp
COMMENT: 
TYPE: HCP
DIMENSION: 1004
EDGE_DATA_FORMAT : EDGE_LIST
EDGE_DATA_SECTION
1 3
1 5
1 1002
2 3
2 6
2 1001
3 1
3 2
3 4
4 3
4 8
4 1004
5 1
5 7
5 9
6 2
6 7
6 10
7 5
7 6
7 8
8 4
8 7
8 12
9 5
9 11
9 13
10 6
10 11
10 14
11 9
11 10
11 12
12 8
12 11
12 16
13 9
13 15
13 17
14 10
14 15
14 18
15 13
15 14
15 16
16 12
16 15
16 20
17 13
17 19
17 21
18 14
18 19
18 22
19 17
19 18
19 20
20 16
20 19
20 24
21 17
21 23
21 25
22 18
22 23
22 26
23 21
23 22
23 24
24 20
24 23
24 28
25 21
25 27
25 29
26 22
26 27
26 30
27 25
27 26
27 28
28 24
28 27
28 32
29 25
29 31
29 33
30 26
30 31
30 34
31 29
31 30
31 32
32 28
32 31
32 36
33 29
33 35
33 37
34 30
34 35
34 38
35 33
35 34
35 36
36 32
36 35
36 40
37 33
37 39
37 41
38 34
38 39
38 42
39 37
39 38
39 40
40 36
40 39
40 44
41 37
41 43
41 45
42 38
42 43
42 46
43 41
43 42
43 44
44 40
44 43
44 48
45 41
45 47
45 49
46 42
46 47
46 50
47 45
47 46
47 48
48 44
48 47
48 52
49 45
49 51
49 53
50 46
50 51
50 54
51 49
51 50
51 52
52 48
52 51
52 56
53 49
53 55
53 57
54 50
54 55
54 58
55 53
55 54
55 56
56 52
56 55
56 60
57 53
57 59
57 61
58 54
58 59
58 62
59 57
59 58
59 60
60 56
60 59
60 64
61 57
61 63
61 65
62 58
62 63
62 66
63 61
63 62
63 64
64 60
64 63
64 68
65 61
65 67
65 69
66 62
66 67
66 70
67 65
67 66
67 68
68 64
68 67
68 72
69 65
69 71
69 73
70 66
70 71
70 74
71 69
71 70
71 72
72 68
72 71
72 76
73 69
73 75
73 77
74 70
74 75
74 78
75 73
75 74
75 76
76 72
76 75
76 80
77 73
77 79
77 81
78 74
78 79
78 82
79 77
79 78
79 80
80 76
80 79
80 84
81 77
81 83
81 85
82 78
82 83
82 86
83 81
83 82
83 84
84 80
84 83
84 88
85 81
85 87
85 89
86 82
86 87
86 90
87 85
87 86
87 88
88 84
88 87
88 92
89 85
89 91
89 93
90 86
90 91
90 94
91 89
91 90
91 92
92 88
92 91
92 96
93 89
93 95
93 97
94 90
94 95
94 98
95 93
95 94
95 96
96 92
96 95
96 100
97 93
97 99
97 101
98 94
98 99
98 102
99 97
99 98
99 100
100 96
100 99
100 104
101 97
101 103
101 105
102 98
102 103
102 106
103 101
103 102
103 104
104 100
104 103
104 108
105 101
105 107
105 109
106 102
106 107
106 110
107 105
107 106
107 108
108 104
108 107
108 112
109 105
109 111
109 113
110 106
110 111
110 114
111 109
111 110
111 112
112 108
112 111
112 116
113 109
113 115
113 117
114 110
114 115
114 118
115 113
115 114
115 116
116 112
116 115
116 120
117 113
117 119
117 121
118 114
118 119
118 122
119 117
119 118
119 120
120 116
120 119
120 124
121 117
121 123
121 125
122 118
122 123
122 126
123 121
123 122
123 124
124 120
124 123
124 128
125 121
125 127
125 129
126 122
126 127
126 130
127 125
127 126
127 128
128 124
128 127
128 132
129 125
129 131
129 133
130 126
130 131
130 134
131 129
131 130
131 132
132 128
132 131
132 136
133 129
133 135
133 137
134 130
134 135
134 138
135 133
135 134
135 136
136 132
136 135
136 140
137 133
137 139
137 141
138 134
138 139
138 142
139 137
139 138
139 140
140 136
140 139
140 144
141 137
141 143
141 145
142 138
142 143
142 146
143 141
143 142
143 144
144 140
144 143
144 148
145 141
145 147
145 149
146 142
146 147
146 150
147 145
147 146
147 148
148 144
148 147
148 152
149 145
149 151
149 153
150 146
150 151
150 154
151 149
151 150
151 152
152 148
152 151
152 156
153 149
153 155
153 157
154 150
154 155
154 158
155 153
155 154
155 156
156 152
156 155
156 160
157 153
157 159
157 161
158 154
158 159
158 162
159 157
159 158
159 160
160 156
160 159
160 164
161 157
161 163
161 165
162 158
162 163
162 166
163 161
163 162
163 164
164 160
164 163
164 168
165 161
165 167
165 169
166 162
166 167
166 170
167 165
167 166
167 168
168 164
168 167
168 172
169 165
169 171
169 173
170 166
170 171
170 174
171 169
171 170
171 172
172 168
172 171
172 176
173 169
173 175
173 177
174 170
174 175
174 178
175 173
175 174
175 176
176 172
176 175
176 180
177 173
177 179
177 181
178 174
178 179
178 182
179 177
179 178
179 180
180 176
180 179
180 184
181 177
181 183
181 185
182 178
182 183
182 186
183 181
183 182
183 184
184 180
184 183
184 188
185 181
185 187
185 189
186 182
186 187
186 190
187 185
187 186
187 188
188 184
188 187
188 192
189 185
189 191
189 193
190 186
190 191
190 194
191 189
191 190
191 192
192 188
192 191
192 196
193 189
193 195
193 197
194 190
194 195
194 198
195 193
195 194
195 196
196 192
196 195
196 200
197 193
197 199
197 201
198 194
198 199
198 202
199 197
199 198
199 200
200 196
200 199
200 204
201 197
201 203
201 205
202 198
202 203
202 206
203 201
203 202
203 204
204 200
204 203
204 208
205 201
205 207
205 209
206 202
206 207
206 210
207 205
207 206
207 208
208 204
208 207
208 212
209 205
209 211
209 213
210 206
210 211
210 214
211 209
211 210
211 212
212 208
212 211
212 216
213 209
213 215
213 217
214 210
214 215
214 218
215 213
215 214
215 216
216 212
216 215
216 220
217 213
217 219
217 221
218 214
218 219
218 222
219 217
219 218
219 220
220 216
220 219
220 224
221 217
221 223
221 225
222 218
222 223
222 226
223 221
223 222
223 224
224 220
224 223
224 228
225 221
225 227
225 229
226 222
226 227
226 230
227 225
227 226
227 228
228 224
228 227
228 232
229 225
229 231
229 233
230 226
230 231
230 234
231 229
231 230
231 232
232 228
232 231
232 236
233 229
233 235
233 237
234 230
234 235
234 238
235 233
235 234
235 236
236 232
236 235
236 240
237 233
237 239
237 241
238 234
238 239
238 242
239 237
239 238
239 240
240 236
240 239
240 244
241 237
241 243
241 245
242 238
242 243
242 246
243 241
243 242
243 244
244 240
244 243
244 248
245 241
245 247
245 249
246 242
246 247
246 250
247 245
247 246
247 248
248 244
248 247
248 252
249 245
249 251
249 253
250 246
250 251
250 254
251 249
251 250
251 252
252 248
252 251
252 256
253 249
253 255
253 257
254 250
254 255
254 258
255 253
255 254
255 256
256 252
256 255
256 260
257 253
257 259
257 261
258 254
258 259
258 262
259 257
259 258
259 260
260 256
260 259
260 264
261 257
261 263
261 265
262 258
262 263
262 266
263 261
263 262
263 264
264 260
264 263
264 268
265 261
265 267
265 269
266 262
266 267
266 270
267 265
267 266
267 268
268 264
268 267
268 272
269 265
269 271
269 273
270 266
270 271
270 274
271 269
271 270
271 272
272 268
272 271
272 276
273 269
273 275
273 277
274 270
274 275
274 278
275 273
275 274
275 276
276 272
276 275
276 280
277 273
277 279
277 281
278 274
278 279
278 282
279 277
279 278
279 280
280 276
280 279
280 284
281 277
281 283
281 285
282 278
282 283
282 286
283 281
283 282
283 284
284 280
284 283
284 288
285 281
285 287
285 289
286 282
286 287
286 290
287 285
287 286
287 288
288 284
288 287
288 292
289 285
289 291
289 293
290 286
290 291
290 294
291 289
291 290
291 292
292 288
292 291
292 296
293 289
293 295
293 297
294 290
294 295
294 298
295 293
295 294
295 296
296 292
296 295
296 300
297 293
297 299
297 301
298 294
298 299
298 302
299 297
299 298
299 300
300 296
300 299
300 304
301 297
301 303
301 305
302 298
302 303
302 306
303 301
303 302
303 304
304 300
304 303
304 308
305 301
305 307
305 309
306 302
306 307
306 310
307 305
307 306
307 308
308 304
308 307
308 312
309 305
309 311
309 313
310 306
310 311
310 314
311 309
311 310
311 312
312 308
312 311
312 316
313 309
313 315
313 317
314 310
314 315
314 318
315 313
315 314
315 316
316 312
316 315
316 320
317 313
317 319
317 321
318 314
318 319
318 322
319 317
319 318
319 320
320 316
320 319
320 324
321 317
321 323
321 325
322 318
322 323
322 326
323 321
323 322
323 324
324 320
324 323
324 328
325 321
325 327
325 329
326 322
326 327
326 330
327 325
327 326
327 328
328 324
328 327
328 332
329 325
329 331
329 333
330 326
330 331
330 334
331 329
331 330
331 332
332 328
332 331
332 336
333 329
333 335
333 337
334 330
334 335
334 338
335 333
335 334
335 336
336 332
336 335
336 340
337 333
337 339
337 341
338 334
338 339
338 342
339 337
339 338
339 340
340 336
340 339
340 344
341 337
341 343
341 345
342 338
342 343
342 346
343 341
343 342
343 344
344 340
344 343
344 348
345 341
345 347
345 349
346 342
346 347
346 350
347 345
347 346
347 348
348 344
348 347
348 352
349 345
349 351
349 353
350 346
350 351
350 354
351 349
351 350
351 352
352 348
352 351
352 356
353 349
353 355
353 357
354 350
354 355
354 358
355 353
355 354
355 356
356 352
356 355
356 360
357 353
357 359
357 361
358 354
358 359
358 362
359 357
359 358
359 360
360 356
360 359
360 364
361 357
361 363
361 365
362 358
362 363
362 366
363 361
363 362
363 364
364 360
364 363
364 368
365 361
365 367
365 369
366 362
366 367
366 370
367 365
367 366
367 368
368 364
368 367
368 372
369 365
369 371
369 373
370 366
370 371
370 374
371 369
371 370
371 372
372 368
372 371
372 376
373 369
373 375
373 377
374 370
374 375
374 378
375 373
375 374
375 376
376 372
376 375
376 380
377 373
377 379
377 381
378 374
378 379
378 382
379 377
379 378
379 380
380 376
380 379
380 384
381 377
381 383
381 385
382 378
382 383
382 386
383 381
383 382
383 384
384 380
384 383
384 388
385 381
385 387
385 389
386 382
386 387
386 390
387 385
387 386
387 388
388 384
388 387
388 392
389 385
389 391
389 393
390 386
390 391
390 394
391 389
391 390
391 392
392 388
392 391
392 396
393 389
393 395
393 397
394 390
394 395
394 398
395 393
395 394
395 396
396 392
396 395
396 400
397 393
397 399
397 401
398 394
398 399
398 402
399 397
399 398
399 400
400 396
400 399
400 404
401 397
401 403
401 405
402 398
402 403
402 406
403 401
403 402
403 404
404 400
404 403
404 408
405 401
405 407
405 409
406 402
406 407
406 410
407 405
407 406
407 408
408 404
408 407
408 412
409 405
409 411
409 413
410 406
410 411
410 414
411 409
411 410
411 412
412 408
412 411
412 416
413 409
413 415
413 417
414 410
414 415
414 418
415 413
415 414
415 416
416 412
416 415
416 420
417 413
417 419
417 421
418 414
418 419
418 422
419 417
419 418
419 420
420 416
420 419
420 424
421 417
421 423
421 425
422 418
422 423
422 426
423 421
423 422
423 424
424 420
424 423
424 428
425 421
425 427
425 429
426 422
426 427
426 430
427 425
427 426
427 428
428 424
428 427
428 432
429 425
429 431
429 433
430 426
430 431
430 434
431 429
431 430
431 432
432 428
432 431
432 436
433 429
433 435
433 437
434 430
434 435
434 438
435 433
435 434
435 436
436 432
436 435
436 440
437 433
437 439
437 441
438 434
438 439
438 442
439 437
439 438
439 440
440 436
440 439
440 444
441 437
441 443
441 445
442 438
442 443
442 446
443 441
443 442
443 444
444 440
444 443
444 448
445 441
445 447
445 449
446 442
446 447
446 450
447 445
447 446
447 448
448 444
448 447
448 452
449 445
449 451
449 453
450 446
450 451
450 454
451 449
451 450
451 452
452 448
452 451
452 456
453 449
453 455
453 457
454 450
454 455
454 458
455 453
455 454
455 456
456 452
456 455
456 460
457 453
457 459
457 461
458 454
458 459
458 462
459 457
459 458
459 460
460 456
460 459
460 464
461 457
461 463
461 465
462 458
462 463
462 466
463 461
463 462
463 464
464 460
464 463
464 468
465 461
465 467
465 469
466 462
466 467
466 470
467 465
467 466
467 468
468 464
468 467
468 472
469 465
469 471
469 473
470 466
470 471
470 474
471 469
471 470
471 472
472 468
472 471
472 476
473 469
473 475
473 477
474 470
474 475
474 478
475 473
475 474
475 476
476 472
476 475
476 480
477 473
477 479
477 481
478 474
478 479
478 482
479 477
479 478
479 480
480 476
480 479
480 484
481 477
481 483
481 485
482 478
482 483
482 486
483 481
483 482
483 484
484 480
484 483
484 488
485 481
485 487
485 489
486 482
486 487
486 490
487 485
487 486
487 488
488 484
488 487
488 492
489 485
489 491
489 493
490 486
490 491
490 494
491 489
491 490
491 492
492 488
492 491
492 496
493 489
493 495
493 497
494 490
494 495
494 498
495 493
495 494
495 496
496 492
496 495
496 500
497 493
497 499
497 501
498 494
498 499
498 502
499 497
499 498
499 500
500 496
500 499
500 504
501 497
501 503
501 505
502 498
502 503
502 506
503 501
503 502
503 504
504 500
504 503
504 508
505 501
505 507
505 509
506 502
506 507
506 510
507 505
507 506
507 508
508 504
508 507
508 512
509 505
509 511
509 513
510 506
510 511
510 514
511 509
511 510
511 512
512 508
512 511
512 516
513 509
513 515
513 517
514 510
514 515
514 518
515 513
515 514
515 516
516 512
516 515
516 520
517 513
517 519
517 521
518 514
518 519
518 522
519 517
519 518
519 520
520 516
520 519
520 524
521 517
521 523
521 525
522 518
522 523
522 526
523 521
523 522
523 524
524 520
524 523
524 528
525 521
525 527
525 529
526 522
526 527
526 530
527 525
527 526
527 528
528 524
528 527
528 532
529 525
529 531
529 533
530 526
530 531
530 534
531 529
531 530
531 532
532 528
532 531
532 536
533 529
533 535
533 537
534 530
534 535
534 538
535 533
535 534
535 536
536 532
536 535
536 540
537 533
537 539
537 541
538 534
538 539
538 542
539 537
539 538
539 540
540 536
540 539
540 544
541 537
541 543
541 545
542 538
542 543
542 546
543 541
543 542
543 544
544 540
544 543
544 548
545 541
545 547
545 549
546 542
546 547
546 550
547 545
547 546
547 548
548 544
548 547
548 552
549 545
549 551
549 553
550 546
550 551
550 554
551 549
551 550
551 552
552 548
552 551
552 556
553 549
553 555
553 557
554 550
554 555
554 558
555 553
555 554
555 556
556 552
556 555
556 560
557 553
557 559
557 561
558 554
558 559
558 562
559 557
559 558
559 560
560 556
560 559
560 564
561 557
561 563
561 565
562 558
562 563
562 566
563 561
563 562
563 564
564 560
564 563
564 568
565 561
565 567
565 569
566 562
566 567
566 570
567 565
567 566
567 568
568 564
568 567
568 572
569 565
569 571
569 573
570 566
570 571
570 574
571 569
571 570
571 572
572 568
572 571
572 576
573 569
573 575
573 577
574 570
574 575
574 578
575 573
575 574
575 576
576 572
576 575
576 580
577 573
577 579
577 581
578 574
578 579
578 582
579 577
579 578
579 580
580 576
580 579
580 584
581 577
581 583
581 585
582 578
582 583
582 586
583 581
583 582
583 584
584 580
584 583
584 588
585 581
585 587
585 589
586 582
586 587
586 590
587 585
587 586
587 588
588 584
588 587
588 592
589 585
589 591
589 593
590 586
590 591
590 594
591 589
591 590
591 592
592 588
592 591
592 596
593 589
593 595
593 597
594 590
594 595
594 598
595 593
595 594
595 596
596 592
596 595
596 600
597 593
597 599
597 601
598 594
598 599
598 602
599 597
599 598
599 600
600 596
600 599
600 604
601 597
601 603
601 605
602 598
602 603
602 606
603 601
603 602
603 604
604 600
604 603
604 608
605 601
605 607
605 609
606 602
606 607
606 610
607 605
607 606
607 608
608 604
608 607
608 612
609 605
609 611
609 613
610 606
610 611
610 614
611 609
611 610
611 612
612 608
612 611
612 616
613 609
613 615
613 617
614 610
614 615
614 618
615 613
615 614
615 616
616 612
616 615
616 620
617 613
617 619
617 621
618 614
618 619
618 622
619 617
619 618
619 620
620 616
620 619
620 624
621 617
621 623
621 625
622 618
622 623
622 626
623 621
623 622
623 624
624 620
624 623
624 628
625 621
625 627
625 629
626 622
626 627
626 630
627 625
627 626
627 628
628 624
628 627
628 632
629 625
629 631
629 633
630 626
630 631
630 634
631 629
631 630
631 632
632 628
632 631
632 636
633 629
633 635
633 637
634 630
634 635
634 638
635 633
635 634
635 636
636 632
636 635
636 640
637 633
637 639
637 641
638 634
638 639
638 642
639 637
639 638
639 640
640 636
640 639
640 644
641 637
641 643
641 645
642 638
642 643
642 646
643 641
643 642
643 644
644 640
644 643
644 648
645 641
645 647
645 649
646 642
646 647
646 650
647 645
647 646
647 648
648 644
648 647
648 652
649 645
649 651
649 653
650 646
650 651
650 654
651 649
651 650
651 652
652 648
652 651
652 656
653 649
653 655
653 657
654 650
654 655
654 658
655 653
655 654
655 656
656 652
656 655
656 660
657 653
657 659
657 661
658 654
658 659
658 662
659 657
659 658
659 660
660 656
660 659
660 664
661 657
661 663
661 665
662 658
662 663
662 666
663 661
663 662
663 664
664 660
664 663
664 668
665 661
665 667
665 669
666 662
666 667
666 670
667 665
667 666
667 668
668 664
668 667
668 672
669 665
669 671
669 673
670 666
670 671
670 674
671 669
671 670
671 672
672 668
672 671
672 676
673 669
673 675
673 677
674 670
674 675
674 678
675 673
675 674
675 676
676 672
676 675
676 680
677 673
677 679
677 681
678 674
678 679
678 682
679 677
679 678
679 680
680 676
680 679
680 684
681 677
681 683
681 685
682 678
682 683
682 686
683 681
683 682
683 684
684 680
684 683
684 688
685 681
685 687
685 689
686 682
686 687
686 690
687 685
687 686
687 688
688 684
688 687
688 692
689 685
689 691
689 693
690 686
690 691
690 694
691 689
691 690
691 692
692 688
692 691
692 696
693 689
693 695
693 697
694 690
694 695
694 698
695 693
695 694
695 696
696 692
696 695
696 700
697 693
697 699
697 701
698 694
698 699
698 702
699 697
699 698
699 700
700 696
700 699
700 704
701 697
701 703
701 705
702 698
702 703
702 706
703 701
703 702
703 704
704 700
704 703
704 708
705 701
705 707
705 709
706 702
706 707
706 710
707 705
707 706
707 708
708 704
708 707
708 712
709 705
709 711
709 713
710 706
710 711
710 714
711 709
711 710
711 712
712 708
712 711
712 716
713 709
713 715
713 717
714 710
714 715
714 718
715 713
715 714
715 716
716 712
716 715
716 720
717 713
717 719
717 721
718 714
718 719
718 722
719 717
719 718
719 720
720 716
720 719
720 724
721 717
721 723
721 725
722 718
722 723
722 726
723 721
723 722
723 724
724 720
724 723
724 728
725 721
725 727
725 729
726 722
726 727
726 730
727 725
727 726
727 728
728 724
728 727
728 732
729 725
729 731
729 733
730 726
730 731
730 734
731 729
731 730
731 732
732 728
732 731
732 736
733 729
733 735
733 737
734 730
734 735
734 738
735 733
735 734
735 736
736 732
736 735
736 740
737 733
737 739
737 741
738 734
738 739
738 742
739 737
739 738
739 740
740 736
740 739
740 744
741 737
741 743
741 745
742 738
742 743
742 746
743 741
743 742
743 744
744 740
744 743
744 748
745 741
745 747
745 749
746 742
746 747
746 750
747 745
747 746
747 748
748 744
748 747
748 752
749 745
749 751
749 753
750 746
750 751
750 754
751 749
751 750
751 752
752 748
752 751
752 756
753 749
753 755
753 757
754 750
754 755
754 758
755 753
755 754
755 756
756 752
756 755
756 760
757 753
757 759
757 761
758 754
758 759
758 762
759 757
759 758
759 760
760 756
760 759
760 764
761 757
761 763
761 765
762 758
762 763
762 766
763 761
763 762
763 764
764 760
764 763
764 768
765 761
765 767
765 769
766 762
766 767
766 770
767 765
767 766
767 768
768 764
768 767
768 772
769 765
769 771
769 773
770 766
770 771
770 774
771 769
771 770
771 772
772 768
772 771
772 776
773 769
773 775
773 777
774 770
774 775
774 778
775 773
775 774
775 776
776 772
776 775
776 780
777 773
777 779
777 781
778 774
778 779
778 782
779 777
779 778
779 780
780 776
780 779
780 784
781 777
781 783
781 785
782 778
782 783
782 786
783 781
783 782
783 784
784 780
784 783
784 788
785 781
785 787
785 789
786 782
786 787
786 790
787 785
787 786
787 788
788 784
788 787
788 792
789 785
789 791
789 793
790 786
790 791
790 794
791 789
791 790
791 792
792 788
792 791
792 796
793 789
793 795
793 797
794 790
794 795
794 798
795 793
795 794
795 796
796 792
796 795
796 800
797 793
797 799
797 801
798 794
798 799
798 802
799 797
799 798
799 800
800 796
800 799
800 804
801 797
801 803
801 805
802 798
802 803
802 806
803 801
803 802
803 804
804 800
804 803
804 808
805 801
805 807
805 809
806 802
806 807
806 810
807 805
807 806
807 808
808 804
808 807
808 812
809 805
809 811
809 813
810 806
810 811
810 814
811 809
811 810
811 812
812 808
812 811
812 816
813 809
813 815
813 817
814 810
814 815
814 818
815 813
815 814
815 816
816 812
816 815
816 820
817 813
817 819
817 821
818 814
818 819
818 822
819 817
819 818
819 820
820 816
820 819
820 824
821 817
821 823
821 825
822 818
822 823
822 826
823 821
823 822
823 824
824 820
824 823
824 828
825 821
825 827
825 829
826 822
826 827
826 830
827 825
827 826
827 828
828 824
828 827
828 832
829 825
829 831
829 833
830 826
830 831
830 834
831 829
831 830
831 832
832 828
832 831
832 836
833 829
833 835
833 837
834 830
834 835
834 838
835 833
835 834
835 836
836 832
836 835
836 840
837 833
837 839
837 841
838 834
838 839
838 842
839 837
839 838
839 840
840 836
840 839
840 844
841 837
841 843
841 845
842 838
842 843
842 846
843 841
843 842
843 844
844 840
844 843
844 848
845 841
845 847
845 849
846 842
846 847
846 850
847 845
847 846
847 848
848 844
848 847
848 852
849 845
849 851
849 853
850 846
850 851
850 854
851 849
851 850
851 852
852 848
852 851
852 856
853 849
853 855
853 857
854 850
854 855
854 858
855 853
855 854
855 856
856 852
856 855
856 860
857 853
857 859
857 861
858 854
858 859
858 862
859 857
859 858
859 860
860 856
860 859
860 864
861 857
861 863
861 865
862 858
862 863
862 866
863 861
863 862
863 864
864 860
864 863
864 868
865 861
865 867
865 869
866 862
866 867
866 870
867 865
867 866
867 868
868 864
868 867
868 872
869 865
869 871
869 873
870 866
870 871
870 874
871 869
871 870
871 872
872 868
872 871
872 876
873 869
873 875
873 877
874 870
874 875
874 878
875 873
875 874
875 876
876 872
876 875
876 880
877 873
877 879
877 881
878 874
878 879
878 882
879 877
879 878
879 880
880 876
880 879
880 884
881 877
881 883
881 885
882 878
882 883
882 886
883 881
883 882
883 884
884 880
884 883
884 888
885 881
885 887
885 889
886 882
886 887
886 890
887 885
887 886
887 888
888 884
888 887
888 892
889 885
889 891
889 893
890 886
890 891
890 894
891 889
891 890
891 892
892 888
892 891
892 896
893 889
893 895
893 897
894 890
894 895
894 898
895 893
895 894
895 896
896 892
896 895
896 900
897 893
897 899
897 901
898 894
898 899
898 902
899 897
899 898
899 900
900 896
900 899
900 904
901 897
901 903
901 905
902 898
902 903
902 906
903 901
903 902
903 904
904 900
904 903
904 908
905 901
905 907
905 909
906 902
906 907
906 910
907 905
907 906
907 908
908 904
908 907
908 912
909 905
909 911
909 913
910 906
910 911
910 914
911 909
911 910
911 912
912 908
912 911
912 916
913 909
913 915
913 917
914 910
914 915
914 918
915 913
915 914
915 916
916 912
916 915
916 920
917 913
917 919
917 921
918 914
918 919
918 922
919 917
919 918
919 920
920 916
920 919
920 924
921 917
921 923
921 925
922 918
922 923
922 926
923 921
923 922
923 924
924 920
924 923
924 928
925 921
925 927
925 929
926 922
926 927
926 930
927 925
927 926
927 928
928 924
928 927
928 932
929 925
929 931
929 933
930 926
930 931
930 934
931 929
931 930
931 932
932 928
932 931
932 936
933 929
933 935
933 937
934 930
934 935
934 938
935 933
935 934
935 936
936 932
936 935
936 940
937 933
937 939
937 941
938 934
938 939
938 942
939 937
939 938
939 940
940 936
940 939
940 944
941 937
941 943
941 945
942 938
942 943
942 946
943 941
943 942
943 944
944 940
944 943
944 948
945 941
945 947
945 949
946 942
946 947
946 950
947 945
947 946
947 948
948 944
948 947
948 952
949 945
949 951
949 953
950 946
950 951
950 954
951 949
951 950
951 952
952 948
952 951
952 956
953 949
953 955
953 957
954 950
954 955
954 958
955 953
955 954
955 956
956 952
956 955
956 960
957 953
957 959
957 961
958 954
958 959
958 962
959 957
959 958
959 960
960 956
960 959
960 964
961 957
961 963
961 965
962 958
962 963
962 966
963 961
963 962
963 964
964 960
964 963
964 968
965 961
965 967
965 969
966 962
966 967
966 970
967 965
967 966
967 968
968 964
968 967
968 972
969 965
969 971
969 973
970 966
970 971
970 974
971 969
971 970
971 972
972 968
972 971
972 976
973 969
973 975
973 977
974 970
974 975
974 978
975 973
975 974
975 976
976 972
976 975
976 980
977 973
977 979
977 981
978 974
978 979
978 982
979 977
979 978
979 980
980 976
980 979
980 984
981 977
981 983
981 985
982 978
982 983
982 986
983 981
983 982
983 984
984 980
984 983
984 988
985 981
985 987
985 989
986 982
986 987
986 990
987 985
987 986
987 988
988 984
988 987
988 992
989 985
989 991
989 993
990 986
990 991
990 994
991 989
991 990
991 992
992 988
992 991
992 996
993 989
993 995
993 997
994 990
994 995
994 998
995 993
995 994
995 996
996 992
996 995
996 1000
997 993
997 999
997 1001
998 994
998 999
998 1002
999 997
999 998
999 1000
1000 996
1000 999
1000 1004
1001 2
1001 997
1001 1003
1002 1
1002 998
1002 1003
1003 1001
1003 1002
1003 1004
1004 4
1004 1000
1004 1003
68 144
144 68
-1
EOF